92
eos V430: rigid scale of f0015 + MACE r0 fixed-cell relax
C     13.3108406589    11.0059208393     3.4152715829
H     13.3451259360    11.5503738419     4.3668292909
H     12.0160937056     8.6592596456     4.2254739584
H     14.0282494797    11.4836169379     2.7360762237
C     11.8741974718    10.1821981786     1.4859720194
H     12.1100313827     9.1308314964     1.6869097615
H     10.8924216196    10.2200223832     0.9982716063
H     12.6200892236    10.5657977092     0.7774974034
C     11.8797585982    11.0330558301     2.7944168350
H      9.3756070184    12.0200662119     3.6143618783
C     11.5464120092    12.5037042171     2.4239449603
H     10.5913431065    12.5963759633     1.8934808174
H     11.5048472754    13.1554474926     3.3047358746
H     12.3242081843    12.8985737109     1.7603583903
H     13.6634712045     9.9832105927     3.5901693351
H      6.4887691112     7.5018292612    11.5519474300
H      6.6887553550     5.9025383339    10.7999237272
C      8.0700723949     8.8192189945     6.7213229755
C      9.0032184788     9.3373640532     5.6830935079
C      6.2643022790     7.8145933537     8.7169348538
C      5.2645625876     7.2147468643     9.7334123444
C     10.8515186793    10.4380124459     3.7857397586
C     10.2092633378     8.6754223270     5.3682385419
H     10.4385312111     7.7227821995     5.8400576504
C     11.1050757244     9.2120691118     4.4380071559
C      7.6593157457     7.7757533001     8.8983489846
H      8.0782638154     7.3601784293     9.8073772056
C      8.5436505794     8.2610574000     7.9247153084
H      9.6137003620     8.2225668978     8.1141643893
C      8.7222454814    10.5322331434     4.9942915682
H      7.8109536488    11.0774526809     5.2176669038
C      5.7946815835     8.3890886582     7.5161130864
H      4.7266073981     8.4376924240     7.3165607849
C      6.6703594864     8.8819789599     6.5472846577
H      6.2662690956     9.2880847233     5.6253020867
C      9.6293316810    11.0720903702     4.0752664926
C      4.2112776468     8.2854830175    10.1504708619
H      3.4788578682     7.8468886913    10.8399632716
H      4.6859881735     9.1376011290    10.6517008377
H      3.6549369357     8.6788852306     9.2916744299
C      5.9666600669     6.6983108934    11.0190162768
H      5.2230501325     6.2766900361    11.7051139643
C      4.5398442989     6.0146184842     9.0528926659
H      3.8348891684     5.5363359589     9.7443893552
H      3.9761841227     6.3209250723     8.1643295784
H      5.2619718178     5.2542212708     8.7345582880
C      4.7768924491     5.2223656496     4.1866720685
C      3.7708441525     4.6571715919     5.1278246591
C      6.6725550795     6.4046345837     2.3859261121
C      7.6235808520     7.0993491648     1.3823206704
C      1.8406693045     3.5973110206     6.9701617954
C      2.3859021073     4.8491074763     4.9315778979
H      2.0428689655     5.4220409999     4.0743870120
C      1.4484801379     4.3358581882     5.8317928790
C      5.5426472933     5.7003879821     1.9154361703
H      5.3770181939     5.6033928043     0.8461179031
C      4.6158321552     5.1244007911     2.7879508748
H      3.7640910565     4.5829052804     2.3847326525
C      4.1654765596     3.9270025107     6.2622936374
H      5.2226826584     3.7474522086     6.4382433343
C      6.8426972093     6.4756819352     3.7808665639
H      7.6856936048     7.0088484554     4.2074575081
C      5.9180110499     5.8954843536     4.6611388182
H      6.0626125381     6.0152644373     5.7314134002
C      3.2217940813     3.4071137990     7.1575449402
C      8.8208403456     7.7962101143     2.0798971801
H      9.4318167979     7.0921951693     2.6577137769
H      8.5063380358     8.5970261287     2.7605673245
H      9.4746873953     8.2509704568     1.3265614821
C      8.1860365903     6.0604109780     0.3637246354
H      8.8079113405     5.3127335600     0.8685830112
C      6.8196760754     8.1884324393     0.6080597800
H      5.9782468438     7.7575509606     0.0537942892
H      7.4645706261     8.7034191361    -0.1134219085
H      6.4177694890     8.9406343668     1.2967104689
H      7.3963880554     5.5273405246    -0.1790790377
H      8.8105931662     6.5665603692    -0.3833064112
C      0.7771178237     3.0251415320     7.9374722548
H      3.5847333141     2.8473400820     8.0111094617
C     -0.1575103213     2.0577185352     7.1568866426
H     -0.9147408097     1.6232349039     7.8214156907
H      0.4059464283     1.2318510275     6.7077896315
H     -0.6891804637     2.5599845108     6.3419076670
H     -0.5673399801     4.7811098216     7.7560791743
H      0.3940006551     4.5187686409     5.6386162797
H      0.5577793088     4.8775421197     9.1146851308
C      1.4162352518     2.2394285410     9.1135520540
H      2.0562050531     2.8815627605     9.7311870703
H      2.0093260506     1.3868961990     8.7608102001
H      0.6282564599     1.8406881499     9.7625564292
C     -0.0686152413     4.1907061087     8.5332446964
H     -0.8452259337     3.7915759502     9.1992099440
