92
last geometry of bench level 06 PBE-D3(BJ)/TZV2P (Leonardo, CELL_OPT step 154, not converged)
C    10.7761439465    10.6146641444     3.4487890492
H    10.8242386263    11.0583890395     4.4530469924
H    10.0101173736     8.1258252585     4.2406588635
H    11.3443055661    11.2662431666     2.7690560924
C     9.2798629021     9.7412725115     1.6272852749
H     9.5852596750     8.6949518524     1.7411401072
H     8.2676102916     9.7554048009     1.2017809844
H     9.9667951685    10.2187185507     0.9143014810
C     9.3230574398    10.4841089889     2.9746247214
H     6.7596829005    10.9429957273     3.9603128750
C     8.7668765551    11.8990770447     2.7660947764
H     7.7432507635    11.9004105277     2.3697833417
H     8.7738663518    12.4833156037     3.6944733087
H     9.3955021379    12.4260649822     2.0328017916
H    11.2910692270     9.6476929678     3.4809925521
H     5.3307478490     6.2312604005    12.0040778369
H     5.5055777650     4.6212716683    11.2629413397
C     6.2988396616     7.4998515971     7.0141635533
C     7.0476199401     8.1691364351     5.9295038557
C     4.8017500660     6.4010433085     9.1812190288
C     3.9519517404     5.8574214169    10.3320495941
C     8.5143738262     9.6767451610     3.9926233305
C     8.3254311398     7.7585549698     5.5080225685
H     8.7791725250     6.8559499323     5.9260957759
C     9.0312621828     8.4938517964     4.5549080442
C     6.2049214713     6.3330801472     9.1473196453
H     6.7455045301     5.8758967274     9.9724524135
C     6.9355332902     6.8598532380     8.0829842906
H     8.0284152598     6.8038620757     8.0992051038
C     6.5081764151     9.3150849060     5.3254500330
H     5.5386119462     9.6829354693     5.6602616166
C     4.1686691893     6.9932517932     8.0802896471
H     3.0768230912     7.0328487581     8.0367698893
C     4.8892758972     7.5391152796     7.0321145134
H     4.3557323502     7.9913988086     6.1965470482
C     7.2184579816    10.0485171754     4.3781566332
C     2.9539763705     6.9353988468    10.8006082447
H     2.3741681487     6.5641134480    11.6586124913
H     3.4674206293     7.8552558351    11.1074975407
H     2.2370930180     7.2027144900    10.0122331586
C     4.7849938532     5.4023239141    11.5375633764
H     4.1156138450     4.9733704749    12.2969898549
C     3.1442103369     4.6564107818     9.8206481360
H     2.4646125423     4.2967737616    10.6052638497
H     2.5381575649     4.9073363549     8.9398473623
H     3.8061035520     3.8289113287     9.5425860769
C     3.6674196459     4.6870273252     4.5923972659
C     2.9361221937     3.9668891069     5.6580856195
C     5.1064341325     5.9583392400     2.4778722659
C     5.8807931888     6.5946171445     1.3183964379
C     1.4933938722     2.5220793607     7.6440533477
C     1.5452280956     4.1194286126     5.8100890399
H     1.0027642751     4.7961249033     5.1508079523
C     0.8473908644     3.4186780188     6.7823492333
C     3.7759345873     5.5353944568     2.3108349078
H     3.2791005342     5.6740403695     1.3522877812
C     3.0768842716     4.9051307951     3.3358463382
H     2.0613733756     4.5457129193     3.1578042733
C     3.5847029603     3.0612430499     6.5075542453
H     4.6555700734     2.8773265770     6.3798868732
C     5.6727011901     5.7767193530     3.7460549974
H     6.6785779849     6.1424109872     3.9436754024
C     4.9750098624     5.1539160975     4.7811651921
H     5.4420654667     5.0593010667     5.7622603070
C     2.8769349094     2.3488337830     7.4734090155
C     7.3631770510     6.7676493702     1.6496458580
H     7.8417352740     5.8019260727     1.8535280470
H     7.5235325610     7.4260075172     2.5138966176
H     7.8785587196     7.2244436348     0.7933372701
C     5.7713499345     5.7144107226     0.0612328172
H     6.1828015574     4.7140522083     0.2469132513
C     5.2871719366     7.9779675745     1.0106625261
H     4.2325909288     7.8960513032     0.7291867430
H     5.8219844133     8.4455593833     0.1710719310
H     5.3657885591     8.6454538798     1.8799710892
H     4.7330546709     5.6011718273    -0.2729182951
H     6.3333761095     6.1613182434    -0.7725706607
C     0.6938184256     1.7615730873     8.7030343130
H     3.4206195818     1.6493615276     8.1078746084
C    -0.1717515057     0.7024279615     8.0018464286
H    -0.7747037273     0.1402053850     8.7310340595
H     0.4516108056    -0.0103612841     7.4482813423
H    -0.8621326472     1.1595959314     7.2801798415
H    -0.9418473439     3.2435541001     8.8107011040
H    -0.2283044838     3.5801796728     6.8777807170
H     0.3460658615     3.4769460561    10.0153042325
C     1.6144252504     1.0761314429     9.7220660630
H     2.2985522627     1.8001372667    10.1844475273
H     2.2113868821     0.2713198343     9.2699099707
H     1.0034084518     0.6288089896    10.5198014321
C    -0.2347140293     2.7219229038     9.4701897407
H    -0.8250279676     2.1492685767    10.2006506537
